c WARNING: for repeatability, setting FPU to use double precision
d VARIABLES            74014        
d CONSTRAINTS          262188       
c ============================[ Problem Statistics ]=============================
c |                                                                             |
c |  Number of variables:         74014                                         |
c |  Number of clauses:          262188                                         |
c |  Parse time:                   0.04 s                                       |
c |                                                                             |
c ============================[ Search Statistics ]==============================
c | Conflicts |          ORIGINAL         |          LEARNT          | Progress |
c |           |    Vars  Clauses Literals |    Limit  Clauses Lit/Cl |          |
c ===============================================================================
c |       100 |   53932   210166   528727 |    77060      100      6 | 27.133 % |
c |       250 |   53931   210166   528727 |    84766      249      4 | 27.134 % |
c |       475 |   53931   210166   528727 |    93243      474      4 | 27.134 % |
c |       812 |   53931   210162   528717 |   102568      811      4 | 27.134 % |
c |      1318 |   53931   210162   528717 |   112824     1317     16 | 27.134 % |
c |      2077 |   53931   210162   528717 |   124107     2076     19 | 27.134 % |
c |      3216 |   53931   210162   528717 |   136518     3215     19 | 27.134 % |
c |      4924 |   53931   210162   528717 |   150169     4923     19 | 27.134 % |
c |      7486 |   53931   210162   528717 |   165186     7485     21 | 27.134 % |
c |     11330 |   53931   210162   528717 |   181705    11329     28 | 27.134 % |
c |     17096 |   53930   210152   528694 |   199876    17090     43 | 27.135 % |
c |     25745 |   53925   210102   528579 |   219863    25695     45 | 27.142 % |
c |     38719 |   53912   210002   528349 |   241850    38591     55 | 27.160 % |
c |     58180 |   53862   209780   527823 |   266035    57058     74 | 27.227 % |
c |     87372 |   53606   208453   524687 |   292638    79447    105 | 27.573 % |
c ===============================================================================
c restarts              : 254
c conflicts             : 89681          (3262 /sec)
c decisions             : 629907         (0.00 % random) (22914 /sec)
c propagations          : 155866649      (5669998 /sec)
c conflict literals     : 9288764        (16.23 % deleted)
d RESTARTS             254
d FAILURES             89681        
d NODES                629907       
d BACKTRACKS           629907       
d PROPAGATIONS         155866649    
d NOGOODSIZE           103.58 
d MEMORY               71.00 
d TIME                 27.4897 

s SATISFIABLE
